# Dati per le Parti 1, 2 e 3
set PUNTI := 1 2 3 4 5 6 7 8;

param x1 :=
1 1
2 3
3 4
4 2
5 2
6 11
7 12
8 -1;

param x2 :=
1 2
2 2
3 8
4 3
5 1
6 -6
7 10
8 -1;

param x3 :=
1 2
2 2
3 2
4 2
5 2
6 2
7 -10
8 20;

param y :=
1 6
2 8
3 9
4 1
5 7
6 20
7 7
8 3;
